(set-option :sygus-inference true)
(set-option :sygus-rr true)
(set-option :conjecture-gen true)
(set-option :conjecture-no-filter true)
(set-option :dt-infer-as-lemmas true)
(set-option :dt-cyclic false)
(set-option :dt-stc-ind true)
(set-option :arith-rewrite-equalities true)
(declare-fun a () Int)
(declare-fun b () Int)
(assert (= a 1))
(assert (> (/ 1 b) (- 1)))
(check-sat)
